10J3M/DAT/10J3MNLR-9.dat
10 3
24.2972 21.8998
19.6104 9.7391
11.9421 29.8735
31.1499 3.2815
20.374 48.8579
26.7467 33.7436
27.0696 21.5602
22.5128 11.8392
25.1387 0.5873
28.0246 27.7964
69.7262