10J3M/SOL/10J3MNLR-9.sol
solution status: optimal solution found
objective value:                     78.9553333333333
x#1#1                                               1 	(obj:0)
x#2#1                                               1 	(obj:0)
x#3#2                               0.427252169839166 	(obj:0)
x#3#3                               0.572747830160834 	(obj:0)
x#4#1                             0.00166487695437478 	(obj:0)
x#4#3                               0.998335123045625 	(obj:0)
x#5#3                                               1 	(obj:0)
x#6#1                                               1 	(obj:0)
x#7#2                                               1 	(obj:0)
x#8#1                               0.366421439478531 	(obj:0)
x#8#2                               0.633578560521469 	(obj:0)
x#9#2                               0.178816636444577 	(obj:0)
x#9#3                               0.821183363555423 	(obj:0)
x#10#2                                              1 	(obj:0)
z                                    78.9553333333333 	(obj:1)
